# Solution for model p01_budget_0p060
# Objective value = 6.0000000000062281e-02
Risk 6.0000000000062281e-02
0 0
1 0
3 0.001
4 30.001
5 3.0002000000000002e+01
6 40.002
7 4.1920467466647288e+01
9 8.5546330480725516e+01
c(0,1)_Rl 0.001
c(0,1)_Ru 0
c(0,3)_Rl 0
c(0,3)_Ru 0
c(3,4)_Rl 0
c(3,4)_Ru 0
c(4,5)_Rl 0
c(4,5)_Ru 0
c(3,5)_Rl 0
c(3,5)_Ru 0
c(1,2)_l 0
c(1,2)_u 4.1919467466647291e+01
c(2,7)_Fl 0
c(2,7)_Fu 2.9638216130176087e-02
c(1,7)_Rl 0
c(1,7)_Ru 0
c(5,6)_Rl 0
c(5,6)_Ru 0
c(3,6)_Rl 0
c(3,6)_Ru 0
c(7,8)_l 0
c(7,8)_u 4.3624863014078223e+01
c(1,8)_Fl 0
c(1,8)_Fu 1.5180891934943097e-02
c(0,9)_Rl 0
c(0,9)_Ru 4.9545730480725517e+01
c(8,9)_Fl 0
c(8,9)_Fu 1.5180891934943097e-02
c(6,9)_Rl 0
c(6,9)_Ru 0
Cost 4.9546730480725515e+01
